% Auto-generated by scripts/generate_dzn.py
% problem_type   = regex
% instance       = regex_89
% source_json    = instances_json/1_medium_blowup/regex_89.json
% blowup         = 5.5
% representation = DFA

mode = 0;

var_count = 18;
n_constraints = 2;
Q = 129;
S = 3;
q0 = [1, 1];
F = [{89, 90, 91, 92, 93, 94, 95, 96, 97, 98, 99, 100, 101, 102, 103, 104, 105, 106, 107, 108, 109, 110, 111, 112, 113, 114, 115, 116, 117, 118, 119, 120, 121, 122, 123, 124, 125, 126, 127, 128, 129}, {13}];
weights = [6, 10, 1, 4, 5, 5, 9, 8, 5, 10, 1, 5, 4, 3, 8, 3, 8, 1];
d_dfa = array3d(1..2, 1..129, 1..3, [
  % k = 1
    1, 2, 1,
    3, 2, 1,
    4, 2, 1,
    6, 5, 6,
    8, 7, 9,
    9, 7, 9,
    11, 10, 12,
    13, 10, 12,
    12, 10, 12,
    15, 14, 16,
    17, 14, 16,
    16, 14, 16,
    19, 18, 19,
    21, 20, 22,
    23, 20, 22,
    22, 20, 22,
    25, 24, 25,
    27, 26, 28,
    28, 26, 28,
    30, 29, 31,
    32, 29, 31,
    31, 29, 31,
    34, 33, 34,
    36, 35, 37,
    37, 35, 37,
    39, 38, 40,
    41, 38, 40,
    40, 38, 40,
    43, 42, 44,
    45, 42, 44,
    44, 42, 44,
    47, 46, 47,
    49, 48, 50,
    50, 48, 50,
    52, 51, 53,
    54, 51, 53,
    53, 51, 53,
    56, 55, 57,
    58, 55, 57,
    57, 55, 57,
    60, 59, 60,
    62, 61, 63,
    64, 61, 63,
    63, 61, 63,
    66, 65, 66,
    68, 67, 69,
    69, 67, 69,
    71, 70, 72,
    73, 70, 72,
    72, 70, 72,
    75, 74, 76,
    77, 74, 76,
    76, 74, 76,
    79, 78, 79,
    81, 80, 82,
    83, 80, 82,
    82, 80, 82,
    85, 84, 85,
    87, 86, 88,
    88, 86, 88,
    90, 89, 91,
    92, 89, 91,
    91, 89, 91,
    94, 93, 94,
    96, 95, 97,
    97, 95, 97,
    99, 98, 100,
    101, 98, 100,
    100, 98, 100,
    103, 102, 104,
    105, 102, 104,
    104, 102, 104,
    107, 106, 107,
    109, 108, 110,
    111, 108, 110,
    110, 108, 110,
    113, 112, 113,
    115, 114, 116,
    116, 114, 116,
    118, 117, 119,
    120, 117, 119,
    119, 117, 119,
    122, 121, 122,
    124, 123, 125,
    125, 123, 125,
    127, 126, 128,
    129, 126, 128,
    128, 126, 128,
    3, 2, 1,
    4, 2, 1,
    1, 2, 1,
    6, 5, 6,
    8, 7, 9,
    9, 7, 9,
    11, 10, 12,
    13, 10, 12,
    12, 10, 12,
    15, 14, 16,
    17, 14, 16,
    16, 14, 16,
    19, 18, 19,
    21, 20, 22,
    23, 20, 22,
    22, 20, 22,
    25, 24, 25,
    27, 26, 28,
    28, 26, 28,
    30, 29, 31,
    32, 29, 31,
    31, 29, 31,
    34, 33, 34,
    36, 35, 37,
    37, 35, 37,
    39, 38, 40,
    41, 38, 40,
    40, 38, 40,
    43, 42, 44,
    45, 42, 44,
    44, 42, 44,
    47, 46, 47,
    49, 48, 50,
    50, 48, 50,
    52, 51, 53,
    54, 51, 53,
    53, 51, 53,
    56, 55, 57,
    58, 55, 57,
    57, 55, 57,
    60, 59, 60,

  % k = 2
    2, 1, 1,
    3, 2, 2,
    4, 3, 3,
    5, 4, 4,
    6, 5, 5,
    7, 6, 6,
    8, 7, 7,
    9, 8, 8,
    10, 9, 9,
    11, 10, 10,
    12, 11, 11,
    13, 12, 12,
    14, 13, 13,
    14, 14, 14,
    0, 0, 0,
    0, 0, 0,
    0, 0, 0,
    0, 0, 0,
    0, 0, 0,
    0, 0, 0,
    0, 0, 0,
    0, 0, 0,
    0, 0, 0,
    0, 0, 0,
    0, 0, 0,
    0, 0, 0,
    0, 0, 0,
    0, 0, 0,
    0, 0, 0,
    0, 0, 0,
    0, 0, 0,
    0, 0, 0,
    0, 0, 0,
    0, 0, 0,
    0, 0, 0,
    0, 0, 0,
    0, 0, 0,
    0, 0, 0,
    0, 0, 0,
    0, 0, 0,
    0, 0, 0,
    0, 0, 0,
    0, 0, 0,
    0, 0, 0,
    0, 0, 0,
    0, 0, 0,
    0, 0, 0,
    0, 0, 0,
    0, 0, 0,
    0, 0, 0,
    0, 0, 0,
    0, 0, 0,
    0, 0, 0,
    0, 0, 0,
    0, 0, 0,
    0, 0, 0,
    0, 0, 0,
    0, 0, 0,
    0, 0, 0,
    0, 0, 0,
    0, 0, 0,
    0, 0, 0,
    0, 0, 0,
    0, 0, 0,
    0, 0, 0,
    0, 0, 0,
    0, 0, 0,
    0, 0, 0,
    0, 0, 0,
    0, 0, 0,
    0, 0, 0,
    0, 0, 0,
    0, 0, 0,
    0, 0, 0,
    0, 0, 0,
    0, 0, 0,
    0, 0, 0,
    0, 0, 0,
    0, 0, 0,
    0, 0, 0,
    0, 0, 0,
    0, 0, 0,
    0, 0, 0,
    0, 0, 0,
    0, 0, 0,
    0, 0, 0,
    0, 0, 0,
    0, 0, 0,
    0, 0, 0,
    0, 0, 0,
    0, 0, 0,
    0, 0, 0,
    0, 0, 0,
    0, 0, 0,
    0, 0, 0,
    0, 0, 0,
    0, 0, 0,
    0, 0, 0,
    0, 0, 0,
    0, 0, 0,
    0, 0, 0,
    0, 0, 0,
    0, 0, 0,
    0, 0, 0,
    0, 0, 0,
    0, 0, 0,
    0, 0, 0,
    0, 0, 0,
    0, 0, 0,
    0, 0, 0,
    0, 0, 0,
    0, 0, 0,
    0, 0, 0,
    0, 0, 0,
    0, 0, 0,
    0, 0, 0,
    0, 0, 0,
    0, 0, 0,
    0, 0, 0,
    0, 0, 0,
    0, 0, 0,
    0, 0, 0,
    0, 0, 0,
    0, 0, 0,
    0, 0, 0,
    0, 0, 0,
    0, 0, 0,
    0, 0, 0,
    0, 0, 0
]);
d_nfa = array3d(1..2, 1..129, 1..3, [
  % k = 1
    {}, {}, {},
    {}, {}, {},
    {}, {}, {},
    {}, {}, {},
    {}, {}, {},
    {}, {}, {},
    {}, {}, {},
    {}, {}, {},
    {}, {}, {},
    {}, {}, {},
    {}, {}, {},
    {}, {}, {},
    {}, {}, {},
    {}, {}, {},
    {}, {}, {},
    {}, {}, {},
    {}, {}, {},
    {}, {}, {},
    {}, {}, {},
    {}, {}, {},
    {}, {}, {},
    {}, {}, {},
    {}, {}, {},
    {}, {}, {},
    {}, {}, {},
    {}, {}, {},
    {}, {}, {},
    {}, {}, {},
    {}, {}, {},
    {}, {}, {},
    {}, {}, {},
    {}, {}, {},
    {}, {}, {},
    {}, {}, {},
    {}, {}, {},
    {}, {}, {},
    {}, {}, {},
    {}, {}, {},
    {}, {}, {},
    {}, {}, {},
    {}, {}, {},
    {}, {}, {},
    {}, {}, {},
    {}, {}, {},
    {}, {}, {},
    {}, {}, {},
    {}, {}, {},
    {}, {}, {},
    {}, {}, {},
    {}, {}, {},
    {}, {}, {},
    {}, {}, {},
    {}, {}, {},
    {}, {}, {},
    {}, {}, {},
    {}, {}, {},
    {}, {}, {},
    {}, {}, {},
    {}, {}, {},
    {}, {}, {},
    {}, {}, {},
    {}, {}, {},
    {}, {}, {},
    {}, {}, {},
    {}, {}, {},
    {}, {}, {},
    {}, {}, {},
    {}, {}, {},
    {}, {}, {},
    {}, {}, {},
    {}, {}, {},
    {}, {}, {},
    {}, {}, {},
    {}, {}, {},
    {}, {}, {},
    {}, {}, {},
    {}, {}, {},
    {}, {}, {},
    {}, {}, {},
    {}, {}, {},
    {}, {}, {},
    {}, {}, {},
    {}, {}, {},
    {}, {}, {},
    {}, {}, {},
    {}, {}, {},
    {}, {}, {},
    {}, {}, {},
    {}, {}, {},
    {}, {}, {},
    {}, {}, {},
    {}, {}, {},
    {}, {}, {},
    {}, {}, {},
    {}, {}, {},
    {}, {}, {},
    {}, {}, {},
    {}, {}, {},
    {}, {}, {},
    {}, {}, {},
    {}, {}, {},
    {}, {}, {},
    {}, {}, {},
    {}, {}, {},
    {}, {}, {},
    {}, {}, {},
    {}, {}, {},
    {}, {}, {},
    {}, {}, {},
    {}, {}, {},
    {}, {}, {},
    {}, {}, {},
    {}, {}, {},
    {}, {}, {},
    {}, {}, {},
    {}, {}, {},
    {}, {}, {},
    {}, {}, {},
    {}, {}, {},
    {}, {}, {},
    {}, {}, {},
    {}, {}, {},
    {}, {}, {},
    {}, {}, {},
    {}, {}, {},
    {}, {}, {},
    {}, {}, {},
    {}, {}, {},
    {}, {}, {},

  % k = 2
    {}, {}, {},
    {}, {}, {},
    {}, {}, {},
    {}, {}, {},
    {}, {}, {},
    {}, {}, {},
    {}, {}, {},
    {}, {}, {},
    {}, {}, {},
    {}, {}, {},
    {}, {}, {},
    {}, {}, {},
    {}, {}, {},
    {}, {}, {},
    {}, {}, {},
    {}, {}, {},
    {}, {}, {},
    {}, {}, {},
    {}, {}, {},
    {}, {}, {},
    {}, {}, {},
    {}, {}, {},
    {}, {}, {},
    {}, {}, {},
    {}, {}, {},
    {}, {}, {},
    {}, {}, {},
    {}, {}, {},
    {}, {}, {},
    {}, {}, {},
    {}, {}, {},
    {}, {}, {},
    {}, {}, {},
    {}, {}, {},
    {}, {}, {},
    {}, {}, {},
    {}, {}, {},
    {}, {}, {},
    {}, {}, {},
    {}, {}, {},
    {}, {}, {},
    {}, {}, {},
    {}, {}, {},
    {}, {}, {},
    {}, {}, {},
    {}, {}, {},
    {}, {}, {},
    {}, {}, {},
    {}, {}, {},
    {}, {}, {},
    {}, {}, {},
    {}, {}, {},
    {}, {}, {},
    {}, {}, {},
    {}, {}, {},
    {}, {}, {},
    {}, {}, {},
    {}, {}, {},
    {}, {}, {},
    {}, {}, {},
    {}, {}, {},
    {}, {}, {},
    {}, {}, {},
    {}, {}, {},
    {}, {}, {},
    {}, {}, {},
    {}, {}, {},
    {}, {}, {},
    {}, {}, {},
    {}, {}, {},
    {}, {}, {},
    {}, {}, {},
    {}, {}, {},
    {}, {}, {},
    {}, {}, {},
    {}, {}, {},
    {}, {}, {},
    {}, {}, {},
    {}, {}, {},
    {}, {}, {},
    {}, {}, {},
    {}, {}, {},
    {}, {}, {},
    {}, {}, {},
    {}, {}, {},
    {}, {}, {},
    {}, {}, {},
    {}, {}, {},
    {}, {}, {},
    {}, {}, {},
    {}, {}, {},
    {}, {}, {},
    {}, {}, {},
    {}, {}, {},
    {}, {}, {},
    {}, {}, {},
    {}, {}, {},
    {}, {}, {},
    {}, {}, {},
    {}, {}, {},
    {}, {}, {},
    {}, {}, {},
    {}, {}, {},
    {}, {}, {},
    {}, {}, {},
    {}, {}, {},
    {}, {}, {},
    {}, {}, {},
    {}, {}, {},
    {}, {}, {},
    {}, {}, {},
    {}, {}, {},
    {}, {}, {},
    {}, {}, {},
    {}, {}, {},
    {}, {}, {},
    {}, {}, {},
    {}, {}, {},
    {}, {}, {},
    {}, {}, {},
    {}, {}, {},
    {}, {}, {},
    {}, {}, {},
    {}, {}, {},
    {}, {}, {},
    {}, {}, {},
    {}, {}, {},
    {}, {}, {},
    {}, {}, {}
]);
